(set-logic QF_LRA)
(declare-fun T1 () Real )
(declare-fun T2 () Real )
(declare-fun T3 () Real )
(declare-fun T4 () Real )
(declare-fun T5 () Real )
(declare-fun T6 () Real )
(declare-fun T7 () Real )
(declare-fun T8 () Real )
(declare-fun Z () Real )
(declare-fun k () Real )
(assert (let
(( $goal (>= Z k) ))
(let
((
$phi ( and 
(or ( <= ( + T1 39 ) T2 ) ( <= ( + T2 47 ) T1 ) )
(or ( <= ( + T1 56 )  ( + T2 47 ) ) ( <= ( + T2 114 )( + T1 39 ) ) )
(or ( <= ( + T1 79 )  ( + T2 114 ) ) ( <= ( + T2 190 )( + T1 56 ) ) )
(or ( <= ( + T1 138 )  ( + T2 190 ) ) ( <= ( + T2 265 )( + T1 79 ) ) )
(or ( <= ( + T1 181 )  ( + T2 265 ) ) ( <= ( + T2 319 )( + T1 138 ) ) )
(or ( <= ( + T1 262 )  ( + T2 319 ) ) ( <= ( + T2 359 )( + T1 181 ) ) )
(or ( <= ( + T1 288 )  ( + T2 359 ) ) ( <= ( + T2 383 )( + T1 262 ) ) )
(or ( <= ( + T1 387 )  ( + T2 383 ) ) ( <= ( + T2 471 )( + T1 288 ) ) )
(or ( <= ( + T1 404 )  ( + T2 471 ) ) ( <= ( + T2 519 )( + T1 387 ) ) )
(or ( <= ( + T1 455 )  ( + T2 519 ) ) ( <= ( + T2 615 )( + T1 404 ) ) )
(or ( <= ( + T1 39 ) T3 ) ( <= ( + T3 66 ) T1 ) )
(or ( <= ( + T1 56 )  ( + T3 66 ) ) ( <= ( + T3 105 )( + T1 39 ) ) )
(or ( <= ( + T1 79 )  ( + T3 105 ) ) ( <= ( + T3 108 )( + T1 56 ) ) )
(or ( <= ( + T1 138 )  ( + T3 108 ) ) ( <= ( + T3 181 )( + T1 79 ) ) )
(or ( <= ( + T1 181 )  ( + T3 181 ) ) ( <= ( + T3 210 )( + T1 138 ) ) )
(or ( <= ( + T1 262 )  ( + T3 210 ) ) ( <= ( + T3 282 )( + T1 181 ) ) )
(or ( <= ( + T1 288 )  ( + T3 282 ) ) ( <= ( + T3 298 )( + T1 262 ) ) )
(or ( <= ( + T1 387 )  ( + T3 298 ) ) ( <= ( + T3 375 )( + T1 288 ) ) )
(or ( <= ( + T1 404 )  ( + T3 375 ) ) ( <= ( + T3 392 )( + T1 387 ) ) )
(or ( <= ( + T1 455 )  ( + T3 392 ) ) ( <= ( + T3 402 )( + T1 404 ) ) )
(or ( <= ( + T1 39 ) T4 ) ( <= ( + T4 22 ) T1 ) )
(or ( <= ( + T1 56 )  ( + T4 22 ) ) ( <= ( + T4 77 )( + T1 39 ) ) )
(or ( <= ( + T1 79 )  ( + T4 77 ) ) ( <= ( + T4 104 )( + T1 56 ) ) )
(or ( <= ( + T1 138 )  ( + T4 104 ) ) ( <= ( + T4 200 )( + T1 79 ) ) )
(or ( <= ( + T1 181 )  ( + T4 200 ) ) ( <= ( + T4 265 )( + T1 138 ) ) )
(or ( <= ( + T1 262 )  ( + T4 265 ) ) ( <= ( + T4 286 )( + T1 181 ) ) )
(or ( <= ( + T1 288 )  ( + T4 286 ) ) ( <= ( + T4 363 )( + T1 262 ) ) )
(or ( <= ( + T1 387 )  ( + T4 363 ) ) ( <= ( + T4 453 )( + T1 288 ) ) )
(or ( <= ( + T1 404 )  ( + T4 453 ) ) ( <= ( + T4 472 )( + T1 387 ) ) )
(or ( <= ( + T1 455 )  ( + T4 472 ) ) ( <= ( + T4 517 )( + T1 404 ) ) )
(or ( <= ( + T1 39 ) T5 ) ( <= ( + T5 92 ) T1 ) )
(or ( <= ( + T1 56 )  ( + T5 92 ) ) ( <= ( + T5 109 )( + T1 39 ) ) )
(or ( <= ( + T1 79 )  ( + T5 109 ) ) ( <= ( + T5 121 )( + T1 56 ) ) )
(or ( <= ( + T1 138 )  ( + T5 121 ) ) ( <= ( + T5 188 )( + T1 79 ) ) )
(or ( <= ( + T1 181 )  ( + T5 188 ) ) ( <= ( + T5 232 )( + T1 138 ) ) )
(or ( <= ( + T1 262 )  ( + T5 232 ) ) ( <= ( + T5 249 )( + T1 181 ) ) )
(or ( <= ( + T1 288 )  ( + T5 249 ) ) ( <= ( + T5 255 )( + T1 262 ) ) )
(or ( <= ( + T1 387 )  ( + T5 255 ) ) ( <= ( + T5 322 )( + T1 288 ) ) )
(or ( <= ( + T1 404 )  ( + T5 322 ) ) ( <= ( + T5 326 )( + T1 387 ) ) )
(or ( <= ( + T1 455 )  ( + T5 326 ) ) ( <= ( + T5 380 )( + T1 404 ) ) )
(or ( <= ( + T1 39 ) T6 ) ( <= ( + T6 14 ) T1 ) )
(or ( <= ( + T1 56 )  ( + T6 14 ) ) ( <= ( + T6 35 )( + T1 39 ) ) )
(or ( <= ( + T1 79 )  ( + T6 35 ) ) ( <= ( + T6 79 )( + T1 56 ) ) )
(or ( <= ( + T1 138 )  ( + T6 79 ) ) ( <= ( + T6 147 )( + T1 79 ) ) )
(or ( <= ( + T1 181 )  ( + T6 147 ) ) ( <= ( + T6 193 )( + T1 138 ) ) )
(or ( <= ( + T1 262 )  ( + T6 193 ) ) ( <= ( + T6 265 )( + T1 181 ) ) )
(or ( <= ( + T1 288 )  ( + T6 265 ) ) ( <= ( + T6 304 )( + T1 262 ) ) )
(or ( <= ( + T1 387 )  ( + T6 304 ) ) ( <= ( + T6 365 )( + T1 288 ) ) )
(or ( <= ( + T1 404 )  ( + T6 365 ) ) ( <= ( + T6 413 )( + T1 387 ) ) )
(or ( <= ( + T1 455 )  ( + T6 413 ) ) ( <= ( + T6 468 )( + T1 404 ) ) )
(or ( <= ( + T1 39 ) T7 ) ( <= ( + T7 71 ) T1 ) )
(or ( <= ( + T1 56 )  ( + T7 71 ) ) ( <= ( + T7 93 )( + T1 39 ) ) )
(or ( <= ( + T1 79 )  ( + T7 93 ) ) ( <= ( + T7 102 )( + T1 56 ) ) )
(or ( <= ( + T1 138 )  ( + T7 102 ) ) ( <= ( + T7 151 )( + T1 79 ) ) )
(or ( <= ( + T1 181 )  ( + T7 151 ) ) ( <= ( + T7 168 )( + T1 138 ) ) )
(or ( <= ( + T1 262 )  ( + T7 168 ) ) ( <= ( + T7 193 )( + T1 181 ) ) )
(or ( <= ( + T1 288 )  ( + T7 193 ) ) ( <= ( + T7 214 )( + T1 262 ) ) )
(or ( <= ( + T1 387 )  ( + T7 214 ) ) ( <= ( + T7 259 )( + T1 288 ) ) )
(or ( <= ( + T1 404 )  ( + T7 259 ) ) ( <= ( + T7 274 )( + T1 387 ) ) )
(or ( <= ( + T1 455 )  ( + T7 274 ) ) ( <= ( + T7 313 )( + T1 404 ) ) )
(or ( <= ( + T1 39 ) T8 ) ( <= ( + T8 42 ) T1 ) )
(or ( <= ( + T1 56 )  ( + T8 42 ) ) ( <= ( + T8 100 )( + T1 39 ) ) )
(or ( <= ( + T1 79 )  ( + T8 100 ) ) ( <= ( + T8 108 )( + T1 56 ) ) )
(or ( <= ( + T1 138 )  ( + T8 108 ) ) ( <= ( + T8 161 )( + T1 79 ) ) )
(or ( <= ( + T1 181 )  ( + T8 161 ) ) ( <= ( + T8 186 )( + T1 138 ) ) )
(or ( <= ( + T1 262 )  ( + T8 186 ) ) ( <= ( + T8 237 )( + T1 181 ) ) )
(or ( <= ( + T1 288 )  ( + T8 237 ) ) ( <= ( + T8 258 )( + T1 262 ) ) )
(or ( <= ( + T1 387 )  ( + T8 258 ) ) ( <= ( + T8 288 )( + T1 288 ) ) )
(or ( <= ( + T1 404 )  ( + T8 288 ) ) ( <= ( + T8 357 )( + T1 387 ) ) )
(or ( <= ( + T1 455 )  ( + T8 357 ) ) ( <= ( + T8 433 )( + T1 404 ) ) )
(or ( <= ( + T2 47 ) T3 ) ( <= ( + T3 66 ) T2 ) )
(or ( <= ( + T2 114 )  ( + T3 66 ) ) ( <= ( + T3 105 )( + T2 47 ) ) )
(or ( <= ( + T2 190 )  ( + T3 105 ) ) ( <= ( + T3 108 )( + T2 114 ) ) )
(or ( <= ( + T2 265 )  ( + T3 108 ) ) ( <= ( + T3 181 )( + T2 190 ) ) )
(or ( <= ( + T2 319 )  ( + T3 181 ) ) ( <= ( + T3 210 )( + T2 265 ) ) )
(or ( <= ( + T2 359 )  ( + T3 210 ) ) ( <= ( + T3 282 )( + T2 319 ) ) )
(or ( <= ( + T2 383 )  ( + T3 282 ) ) ( <= ( + T3 298 )( + T2 359 ) ) )
(or ( <= ( + T2 471 )  ( + T3 298 ) ) ( <= ( + T3 375 )( + T2 383 ) ) )
(or ( <= ( + T2 519 )  ( + T3 375 ) ) ( <= ( + T3 392 )( + T2 471 ) ) )
(or ( <= ( + T2 615 )  ( + T3 392 ) ) ( <= ( + T3 402 )( + T2 519 ) ) )
(or ( <= ( + T2 47 ) T4 ) ( <= ( + T4 22 ) T2 ) )
(or ( <= ( + T2 114 )  ( + T4 22 ) ) ( <= ( + T4 77 )( + T2 47 ) ) )
(or ( <= ( + T2 190 )  ( + T4 77 ) ) ( <= ( + T4 104 )( + T2 114 ) ) )
(or ( <= ( + T2 265 )  ( + T4 104 ) ) ( <= ( + T4 200 )( + T2 190 ) ) )
(or ( <= ( + T2 319 )  ( + T4 200 ) ) ( <= ( + T4 265 )( + T2 265 ) ) )
(or ( <= ( + T2 359 )  ( + T4 265 ) ) ( <= ( + T4 286 )( + T2 319 ) ) )
(or ( <= ( + T2 383 )  ( + T4 286 ) ) ( <= ( + T4 363 )( + T2 359 ) ) )
(or ( <= ( + T2 471 )  ( + T4 363 ) ) ( <= ( + T4 453 )( + T2 383 ) ) )
(or ( <= ( + T2 519 )  ( + T4 453 ) ) ( <= ( + T4 472 )( + T2 471 ) ) )
(or ( <= ( + T2 615 )  ( + T4 472 ) ) ( <= ( + T4 517 )( + T2 519 ) ) )
(or ( <= ( + T2 47 ) T5 ) ( <= ( + T5 92 ) T2 ) )
(or ( <= ( + T2 114 )  ( + T5 92 ) ) ( <= ( + T5 109 )( + T2 47 ) ) )
(or ( <= ( + T2 190 )  ( + T5 109 ) ) ( <= ( + T5 121 )( + T2 114 ) ) )
(or ( <= ( + T2 265 )  ( + T5 121 ) ) ( <= ( + T5 188 )( + T2 190 ) ) )
(or ( <= ( + T2 319 )  ( + T5 188 ) ) ( <= ( + T5 232 )( + T2 265 ) ) )
(or ( <= ( + T2 359 )  ( + T5 232 ) ) ( <= ( + T5 249 )( + T2 319 ) ) )
(or ( <= ( + T2 383 )  ( + T5 249 ) ) ( <= ( + T5 255 )( + T2 359 ) ) )
(or ( <= ( + T2 471 )  ( + T5 255 ) ) ( <= ( + T5 322 )( + T2 383 ) ) )
(or ( <= ( + T2 519 )  ( + T5 322 ) ) ( <= ( + T5 326 )( + T2 471 ) ) )
(or ( <= ( + T2 615 )  ( + T5 326 ) ) ( <= ( + T5 380 )( + T2 519 ) ) )
(or ( <= ( + T2 47 ) T6 ) ( <= ( + T6 14 ) T2 ) )
(or ( <= ( + T2 114 )  ( + T6 14 ) ) ( <= ( + T6 35 )( + T2 47 ) ) )
(or ( <= ( + T2 190 )  ( + T6 35 ) ) ( <= ( + T6 79 )( + T2 114 ) ) )
(or ( <= ( + T2 265 )  ( + T6 79 ) ) ( <= ( + T6 147 )( + T2 190 ) ) )
(or ( <= ( + T2 319 )  ( + T6 147 ) ) ( <= ( + T6 193 )( + T2 265 ) ) )
(or ( <= ( + T2 359 )  ( + T6 193 ) ) ( <= ( + T6 265 )( + T2 319 ) ) )
(or ( <= ( + T2 383 )  ( + T6 265 ) ) ( <= ( + T6 304 )( + T2 359 ) ) )
(or ( <= ( + T2 471 )  ( + T6 304 ) ) ( <= ( + T6 365 )( + T2 383 ) ) )
(or ( <= ( + T2 519 )  ( + T6 365 ) ) ( <= ( + T6 413 )( + T2 471 ) ) )
(or ( <= ( + T2 615 )  ( + T6 413 ) ) ( <= ( + T6 468 )( + T2 519 ) ) )
(or ( <= ( + T2 47 ) T7 ) ( <= ( + T7 71 ) T2 ) )
(or ( <= ( + T2 114 )  ( + T7 71 ) ) ( <= ( + T7 93 )( + T2 47 ) ) )
(or ( <= ( + T2 190 )  ( + T7 93 ) ) ( <= ( + T7 102 )( + T2 114 ) ) )
(or ( <= ( + T2 265 )  ( + T7 102 ) ) ( <= ( + T7 151 )( + T2 190 ) ) )
(or ( <= ( + T2 319 )  ( + T7 151 ) ) ( <= ( + T7 168 )( + T2 265 ) ) )
(or ( <= ( + T2 359 )  ( + T7 168 ) ) ( <= ( + T7 193 )( + T2 319 ) ) )
(or ( <= ( + T2 383 )  ( + T7 193 ) ) ( <= ( + T7 214 )( + T2 359 ) ) )
(or ( <= ( + T2 471 )  ( + T7 214 ) ) ( <= ( + T7 259 )( + T2 383 ) ) )
(or ( <= ( + T2 519 )  ( + T7 259 ) ) ( <= ( + T7 274 )( + T2 471 ) ) )
(or ( <= ( + T2 615 )  ( + T7 274 ) ) ( <= ( + T7 313 )( + T2 519 ) ) )
(or ( <= ( + T2 47 ) T8 ) ( <= ( + T8 42 ) T2 ) )
(or ( <= ( + T2 114 )  ( + T8 42 ) ) ( <= ( + T8 100 )( + T2 47 ) ) )
(or ( <= ( + T2 190 )  ( + T8 100 ) ) ( <= ( + T8 108 )( + T2 114 ) ) )
(or ( <= ( + T2 265 )  ( + T8 108 ) ) ( <= ( + T8 161 )( + T2 190 ) ) )
(or ( <= ( + T2 319 )  ( + T8 161 ) ) ( <= ( + T8 186 )( + T2 265 ) ) )
(or ( <= ( + T2 359 )  ( + T8 186 ) ) ( <= ( + T8 237 )( + T2 319 ) ) )
(or ( <= ( + T2 383 )  ( + T8 237 ) ) ( <= ( + T8 258 )( + T2 359 ) ) )
(or ( <= ( + T2 471 )  ( + T8 258 ) ) ( <= ( + T8 288 )( + T2 383 ) ) )
(or ( <= ( + T2 519 )  ( + T8 288 ) ) ( <= ( + T8 357 )( + T2 471 ) ) )
(or ( <= ( + T2 615 )  ( + T8 357 ) ) ( <= ( + T8 433 )( + T2 519 ) ) )
(or ( <= ( + T3 66 ) T4 ) ( <= ( + T4 22 ) T3 ) )
(or ( <= ( + T3 105 )  ( + T4 22 ) ) ( <= ( + T4 77 )( + T3 66 ) ) )
(or ( <= ( + T3 108 )  ( + T4 77 ) ) ( <= ( + T4 104 )( + T3 105 ) ) )
(or ( <= ( + T3 181 )  ( + T4 104 ) ) ( <= ( + T4 200 )( + T3 108 ) ) )
(or ( <= ( + T3 210 )  ( + T4 200 ) ) ( <= ( + T4 265 )( + T3 181 ) ) )
(or ( <= ( + T3 282 )  ( + T4 265 ) ) ( <= ( + T4 286 )( + T3 210 ) ) )
(or ( <= ( + T3 298 )  ( + T4 286 ) ) ( <= ( + T4 363 )( + T3 282 ) ) )
(or ( <= ( + T3 375 )  ( + T4 363 ) ) ( <= ( + T4 453 )( + T3 298 ) ) )
(or ( <= ( + T3 392 )  ( + T4 453 ) ) ( <= ( + T4 472 )( + T3 375 ) ) )
(or ( <= ( + T3 402 )  ( + T4 472 ) ) ( <= ( + T4 517 )( + T3 392 ) ) )
(or ( <= ( + T3 66 ) T5 ) ( <= ( + T5 92 ) T3 ) )
(or ( <= ( + T3 105 )  ( + T5 92 ) ) ( <= ( + T5 109 )( + T3 66 ) ) )
(or ( <= ( + T3 108 )  ( + T5 109 ) ) ( <= ( + T5 121 )( + T3 105 ) ) )
(or ( <= ( + T3 181 )  ( + T5 121 ) ) ( <= ( + T5 188 )( + T3 108 ) ) )
(or ( <= ( + T3 210 )  ( + T5 188 ) ) ( <= ( + T5 232 )( + T3 181 ) ) )
(or ( <= ( + T3 282 )  ( + T5 232 ) ) ( <= ( + T5 249 )( + T3 210 ) ) )
(or ( <= ( + T3 298 )  ( + T5 249 ) ) ( <= ( + T5 255 )( + T3 282 ) ) )
(or ( <= ( + T3 375 )  ( + T5 255 ) ) ( <= ( + T5 322 )( + T3 298 ) ) )
(or ( <= ( + T3 392 )  ( + T5 322 ) ) ( <= ( + T5 326 )( + T3 375 ) ) )
(or ( <= ( + T3 402 )  ( + T5 326 ) ) ( <= ( + T5 380 )( + T3 392 ) ) )
(or ( <= ( + T3 66 ) T6 ) ( <= ( + T6 14 ) T3 ) )
(or ( <= ( + T3 105 )  ( + T6 14 ) ) ( <= ( + T6 35 )( + T3 66 ) ) )
(or ( <= ( + T3 108 )  ( + T6 35 ) ) ( <= ( + T6 79 )( + T3 105 ) ) )
(or ( <= ( + T3 181 )  ( + T6 79 ) ) ( <= ( + T6 147 )( + T3 108 ) ) )
(or ( <= ( + T3 210 )  ( + T6 147 ) ) ( <= ( + T6 193 )( + T3 181 ) ) )
(or ( <= ( + T3 282 )  ( + T6 193 ) ) ( <= ( + T6 265 )( + T3 210 ) ) )
(or ( <= ( + T3 298 )  ( + T6 265 ) ) ( <= ( + T6 304 )( + T3 282 ) ) )
(or ( <= ( + T3 375 )  ( + T6 304 ) ) ( <= ( + T6 365 )( + T3 298 ) ) )
(or ( <= ( + T3 392 )  ( + T6 365 ) ) ( <= ( + T6 413 )( + T3 375 ) ) )
(or ( <= ( + T3 402 )  ( + T6 413 ) ) ( <= ( + T6 468 )( + T3 392 ) ) )
(or ( <= ( + T3 66 ) T7 ) ( <= ( + T7 71 ) T3 ) )
(or ( <= ( + T3 105 )  ( + T7 71 ) ) ( <= ( + T7 93 )( + T3 66 ) ) )
(or ( <= ( + T3 108 )  ( + T7 93 ) ) ( <= ( + T7 102 )( + T3 105 ) ) )
(or ( <= ( + T3 181 )  ( + T7 102 ) ) ( <= ( + T7 151 )( + T3 108 ) ) )
(or ( <= ( + T3 210 )  ( + T7 151 ) ) ( <= ( + T7 168 )( + T3 181 ) ) )
(or ( <= ( + T3 282 )  ( + T7 168 ) ) ( <= ( + T7 193 )( + T3 210 ) ) )
(or ( <= ( + T3 298 )  ( + T7 193 ) ) ( <= ( + T7 214 )( + T3 282 ) ) )
(or ( <= ( + T3 375 )  ( + T7 214 ) ) ( <= ( + T7 259 )( + T3 298 ) ) )
(or ( <= ( + T3 392 )  ( + T7 259 ) ) ( <= ( + T7 274 )( + T3 375 ) ) )
(or ( <= ( + T3 402 )  ( + T7 274 ) ) ( <= ( + T7 313 )( + T3 392 ) ) )
(or ( <= ( + T3 66 ) T8 ) ( <= ( + T8 42 ) T3 ) )
(or ( <= ( + T3 105 )  ( + T8 42 ) ) ( <= ( + T8 100 )( + T3 66 ) ) )
(or ( <= ( + T3 108 )  ( + T8 100 ) ) ( <= ( + T8 108 )( + T3 105 ) ) )
(or ( <= ( + T3 181 )  ( + T8 108 ) ) ( <= ( + T8 161 )( + T3 108 ) ) )
(or ( <= ( + T3 210 )  ( + T8 161 ) ) ( <= ( + T8 186 )( + T3 181 ) ) )
(or ( <= ( + T3 282 )  ( + T8 186 ) ) ( <= ( + T8 237 )( + T3 210 ) ) )
(or ( <= ( + T3 298 )  ( + T8 237 ) ) ( <= ( + T8 258 )( + T3 282 ) ) )
(or ( <= ( + T3 375 )  ( + T8 258 ) ) ( <= ( + T8 288 )( + T3 298 ) ) )
(or ( <= ( + T3 392 )  ( + T8 288 ) ) ( <= ( + T8 357 )( + T3 375 ) ) )
(or ( <= ( + T3 402 )  ( + T8 357 ) ) ( <= ( + T8 433 )( + T3 392 ) ) )
(or ( <= ( + T4 22 ) T5 ) ( <= ( + T5 92 ) T4 ) )
(or ( <= ( + T4 77 )  ( + T5 92 ) ) ( <= ( + T5 109 )( + T4 22 ) ) )
(or ( <= ( + T4 104 )  ( + T5 109 ) ) ( <= ( + T5 121 )( + T4 77 ) ) )
(or ( <= ( + T4 200 )  ( + T5 121 ) ) ( <= ( + T5 188 )( + T4 104 ) ) )
(or ( <= ( + T4 265 )  ( + T5 188 ) ) ( <= ( + T5 232 )( + T4 200 ) ) )
(or ( <= ( + T4 286 )  ( + T5 232 ) ) ( <= ( + T5 249 )( + T4 265 ) ) )
(or ( <= ( + T4 363 )  ( + T5 249 ) ) ( <= ( + T5 255 )( + T4 286 ) ) )
(or ( <= ( + T4 453 )  ( + T5 255 ) ) ( <= ( + T5 322 )( + T4 363 ) ) )
(or ( <= ( + T4 472 )  ( + T5 322 ) ) ( <= ( + T5 326 )( + T4 453 ) ) )
(or ( <= ( + T4 517 )  ( + T5 326 ) ) ( <= ( + T5 380 )( + T4 472 ) ) )
(or ( <= ( + T4 22 ) T6 ) ( <= ( + T6 14 ) T4 ) )
(or ( <= ( + T4 77 )  ( + T6 14 ) ) ( <= ( + T6 35 )( + T4 22 ) ) )
(or ( <= ( + T4 104 )  ( + T6 35 ) ) ( <= ( + T6 79 )( + T4 77 ) ) )
(or ( <= ( + T4 200 )  ( + T6 79 ) ) ( <= ( + T6 147 )( + T4 104 ) ) )
(or ( <= ( + T4 265 )  ( + T6 147 ) ) ( <= ( + T6 193 )( + T4 200 ) ) )
(or ( <= ( + T4 286 )  ( + T6 193 ) ) ( <= ( + T6 265 )( + T4 265 ) ) )
(or ( <= ( + T4 363 )  ( + T6 265 ) ) ( <= ( + T6 304 )( + T4 286 ) ) )
(or ( <= ( + T4 453 )  ( + T6 304 ) ) ( <= ( + T6 365 )( + T4 363 ) ) )
(or ( <= ( + T4 472 )  ( + T6 365 ) ) ( <= ( + T6 413 )( + T4 453 ) ) )
(or ( <= ( + T4 517 )  ( + T6 413 ) ) ( <= ( + T6 468 )( + T4 472 ) ) )
(or ( <= ( + T4 22 ) T7 ) ( <= ( + T7 71 ) T4 ) )
(or ( <= ( + T4 77 )  ( + T7 71 ) ) ( <= ( + T7 93 )( + T4 22 ) ) )
(or ( <= ( + T4 104 )  ( + T7 93 ) ) ( <= ( + T7 102 )( + T4 77 ) ) )
(or ( <= ( + T4 200 )  ( + T7 102 ) ) ( <= ( + T7 151 )( + T4 104 ) ) )
(or ( <= ( + T4 265 )  ( + T7 151 ) ) ( <= ( + T7 168 )( + T4 200 ) ) )
(or ( <= ( + T4 286 )  ( + T7 168 ) ) ( <= ( + T7 193 )( + T4 265 ) ) )
(or ( <= ( + T4 363 )  ( + T7 193 ) ) ( <= ( + T7 214 )( + T4 286 ) ) )
(or ( <= ( + T4 453 )  ( + T7 214 ) ) ( <= ( + T7 259 )( + T4 363 ) ) )
(or ( <= ( + T4 472 )  ( + T7 259 ) ) ( <= ( + T7 274 )( + T4 453 ) ) )
(or ( <= ( + T4 517 )  ( + T7 274 ) ) ( <= ( + T7 313 )( + T4 472 ) ) )
(or ( <= ( + T4 22 ) T8 ) ( <= ( + T8 42 ) T4 ) )
(or ( <= ( + T4 77 )  ( + T8 42 ) ) ( <= ( + T8 100 )( + T4 22 ) ) )
(or ( <= ( + T4 104 )  ( + T8 100 ) ) ( <= ( + T8 108 )( + T4 77 ) ) )
(or ( <= ( + T4 200 )  ( + T8 108 ) ) ( <= ( + T8 161 )( + T4 104 ) ) )
(or ( <= ( + T4 265 )  ( + T8 161 ) ) ( <= ( + T8 186 )( + T4 200 ) ) )
(or ( <= ( + T4 286 )  ( + T8 186 ) ) ( <= ( + T8 237 )( + T4 265 ) ) )
(or ( <= ( + T4 363 )  ( + T8 237 ) ) ( <= ( + T8 258 )( + T4 286 ) ) )
(or ( <= ( + T4 453 )  ( + T8 258 ) ) ( <= ( + T8 288 )( + T4 363 ) ) )
(or ( <= ( + T4 472 )  ( + T8 288 ) ) ( <= ( + T8 357 )( + T4 453 ) ) )
(or ( <= ( + T4 517 )  ( + T8 357 ) ) ( <= ( + T8 433 )( + T4 472 ) ) )
(or ( <= ( + T5 92 ) T6 ) ( <= ( + T6 14 ) T5 ) )
(or ( <= ( + T5 109 )  ( + T6 14 ) ) ( <= ( + T6 35 )( + T5 92 ) ) )
(or ( <= ( + T5 121 )  ( + T6 35 ) ) ( <= ( + T6 79 )( + T5 109 ) ) )
(or ( <= ( + T5 188 )  ( + T6 79 ) ) ( <= ( + T6 147 )( + T5 121 ) ) )
(or ( <= ( + T5 232 )  ( + T6 147 ) ) ( <= ( + T6 193 )( + T5 188 ) ) )
(or ( <= ( + T5 249 )  ( + T6 193 ) ) ( <= ( + T6 265 )( + T5 232 ) ) )
(or ( <= ( + T5 255 )  ( + T6 265 ) ) ( <= ( + T6 304 )( + T5 249 ) ) )
(or ( <= ( + T5 322 )  ( + T6 304 ) ) ( <= ( + T6 365 )( + T5 255 ) ) )
(or ( <= ( + T5 326 )  ( + T6 365 ) ) ( <= ( + T6 413 )( + T5 322 ) ) )
(or ( <= ( + T5 380 )  ( + T6 413 ) ) ( <= ( + T6 468 )( + T5 326 ) ) )
(or ( <= ( + T5 92 ) T7 ) ( <= ( + T7 71 ) T5 ) )
(or ( <= ( + T5 109 )  ( + T7 71 ) ) ( <= ( + T7 93 )( + T5 92 ) ) )
(or ( <= ( + T5 121 )  ( + T7 93 ) ) ( <= ( + T7 102 )( + T5 109 ) ) )
(or ( <= ( + T5 188 )  ( + T7 102 ) ) ( <= ( + T7 151 )( + T5 121 ) ) )
(or ( <= ( + T5 232 )  ( + T7 151 ) ) ( <= ( + T7 168 )( + T5 188 ) ) )
(or ( <= ( + T5 249 )  ( + T7 168 ) ) ( <= ( + T7 193 )( + T5 232 ) ) )
(or ( <= ( + T5 255 )  ( + T7 193 ) ) ( <= ( + T7 214 )( + T5 249 ) ) )
(or ( <= ( + T5 322 )  ( + T7 214 ) ) ( <= ( + T7 259 )( + T5 255 ) ) )
(or ( <= ( + T5 326 )  ( + T7 259 ) ) ( <= ( + T7 274 )( + T5 322 ) ) )
(or ( <= ( + T5 380 )  ( + T7 274 ) ) ( <= ( + T7 313 )( + T5 326 ) ) )
(or ( <= ( + T5 92 ) T8 ) ( <= ( + T8 42 ) T5 ) )
(or ( <= ( + T5 109 )  ( + T8 42 ) ) ( <= ( + T8 100 )( + T5 92 ) ) )
(or ( <= ( + T5 121 )  ( + T8 100 ) ) ( <= ( + T8 108 )( + T5 109 ) ) )
(or ( <= ( + T5 188 )  ( + T8 108 ) ) ( <= ( + T8 161 )( + T5 121 ) ) )
(or ( <= ( + T5 232 )  ( + T8 161 ) ) ( <= ( + T8 186 )( + T5 188 ) ) )
(or ( <= ( + T5 249 )  ( + T8 186 ) ) ( <= ( + T8 237 )( + T5 232 ) ) )
(or ( <= ( + T5 255 )  ( + T8 237 ) ) ( <= ( + T8 258 )( + T5 249 ) ) )
(or ( <= ( + T5 322 )  ( + T8 258 ) ) ( <= ( + T8 288 )( + T5 255 ) ) )
(or ( <= ( + T5 326 )  ( + T8 288 ) ) ( <= ( + T8 357 )( + T5 322 ) ) )
(or ( <= ( + T5 380 )  ( + T8 357 ) ) ( <= ( + T8 433 )( + T5 326 ) ) )
(or ( <= ( + T6 14 ) T7 ) ( <= ( + T7 71 ) T6 ) )
(or ( <= ( + T6 35 )  ( + T7 71 ) ) ( <= ( + T7 93 )( + T6 14 ) ) )
(or ( <= ( + T6 79 )  ( + T7 93 ) ) ( <= ( + T7 102 )( + T6 35 ) ) )
(or ( <= ( + T6 147 )  ( + T7 102 ) ) ( <= ( + T7 151 )( + T6 79 ) ) )
(or ( <= ( + T6 193 )  ( + T7 151 ) ) ( <= ( + T7 168 )( + T6 147 ) ) )
(or ( <= ( + T6 265 )  ( + T7 168 ) ) ( <= ( + T7 193 )( + T6 193 ) ) )
(or ( <= ( + T6 304 )  ( + T7 193 ) ) ( <= ( + T7 214 )( + T6 265 ) ) )
(or ( <= ( + T6 365 )  ( + T7 214 ) ) ( <= ( + T7 259 )( + T6 304 ) ) )
(or ( <= ( + T6 413 )  ( + T7 259 ) ) ( <= ( + T7 274 )( + T6 365 ) ) )
(or ( <= ( + T6 468 )  ( + T7 274 ) ) ( <= ( + T7 313 )( + T6 413 ) ) )
(or ( <= ( + T6 14 ) T8 ) ( <= ( + T8 42 ) T6 ) )
(or ( <= ( + T6 35 )  ( + T8 42 ) ) ( <= ( + T8 100 )( + T6 14 ) ) )
(or ( <= ( + T6 79 )  ( + T8 100 ) ) ( <= ( + T8 108 )( + T6 35 ) ) )
(or ( <= ( + T6 147 )  ( + T8 108 ) ) ( <= ( + T8 161 )( + T6 79 ) ) )
(or ( <= ( + T6 193 )  ( + T8 161 ) ) ( <= ( + T8 186 )( + T6 147 ) ) )
(or ( <= ( + T6 265 )  ( + T8 186 ) ) ( <= ( + T8 237 )( + T6 193 ) ) )
(or ( <= ( + T6 304 )  ( + T8 237 ) ) ( <= ( + T8 258 )( + T6 265 ) ) )
(or ( <= ( + T6 365 )  ( + T8 258 ) ) ( <= ( + T8 288 )( + T6 304 ) ) )
(or ( <= ( + T6 413 )  ( + T8 288 ) ) ( <= ( + T8 357 )( + T6 365 ) ) )
(or ( <= ( + T6 468 )  ( + T8 357 ) ) ( <= ( + T8 433 )( + T6 413 ) ) )
(or ( <= ( + T7 71 ) T8 ) ( <= ( + T8 42 ) T7 ) )
(or ( <= ( + T7 93 )  ( + T8 42 ) ) ( <= ( + T8 100 )( + T7 71 ) ) )
(or ( <= ( + T7 102 )  ( + T8 100 ) ) ( <= ( + T8 108 )( + T7 93 ) ) )
(or ( <= ( + T7 151 )  ( + T8 108 ) ) ( <= ( + T8 161 )( + T7 102 ) ) )
(or ( <= ( + T7 168 )  ( + T8 161 ) ) ( <= ( + T8 186 )( + T7 151 ) ) )
(or ( <= ( + T7 193 )  ( + T8 186 ) ) ( <= ( + T8 237 )( + T7 168 ) ) )
(or ( <= ( + T7 214 )  ( + T8 237 ) ) ( <= ( + T8 258 )( + T7 193 ) ) )
(or ( <= ( + T7 259 )  ( + T8 258 ) ) ( <= ( + T8 288 )( + T7 214 ) ) )
(or ( <= ( + T7 274 )  ( + T8 288 ) ) ( <= ( + T8 357 )( + T7 259 ) ) )
(or ( <= ( + T7 313 )  ( + T8 357 ) ) ( <= ( + T8 433 )( + T7 274 ) ) )
( <= ( + T1 455 ) Z)
( <= ( + T2 615 ) Z)
( <= ( + T3 402 ) Z)
( <= ( + T4 517 ) Z)
( <= ( + T5 380 ) Z)
( <= ( + T6 468 ) Z)
( <= ( + T7 313 ) Z)
( <= ( + T8 433 ) Z)
( >= T1 0 )
( >= T2 0 )
( >= T3 0 )
( >= T4 0 )
( >= T5 0 )
( >= T6 0 )
( >= T7 0 )
( >= T8 0 )
) )
)(=> $phi $goal))))